&CONTROL
  calculation = 'scf'
  restart_mode = 'from_scratch'
  pseudo_dir = '../Fe_v02'
  outdir = './tmp'
  verbosity = 'high'
  disk_io = 'none'
  tprnfor = .true.
/

&SYSTEM
  ibrav = 1
  celldm(1) = 5.42
  nat = 2
  ntyp = 1
  nbnd = 11
  ecutwfc = 40.0
  input_dft = 'slater+vwn'
  occupations = 'smearing'
  smearing = 'fermi-dirac'
  degauss = 0.002
  nspin = 2
  starting_magnetization(1) = 0.400000
/

&ELECTRONS
  electron_maxstep = 150
  mixing_beta = 0.700000
  conv_thr = 2.0000000000e-06
/

ATOMIC_SPECIES
   Fe 56.0 Fe.pz-hgh.UPF

ATOMIC_POSITIONS crystal
Fe       0.0       0.0       0.0
Fe       0.5       0.5       0.5

K_POINTS automatic
3 3 3 0 0 0




